(declare-const delta_i Int)
(declare-const delta_param0 Int)
(declare-const delta_k Int)
(declare-const delta_nrm Real)
(declare-const delta_param0@width Int)
(declare-const delta_j Int)
(declare-const delta_param0@pos Int)
(assert (exists
         ((|param0@width'?1| Int) (|param0@pos'?2| Int) (|param0'?3| Int)
            (|k'?4| Int) (|i'?5| Int) (|S1,0?6| Real) (|j'?7| Int)
            (KSUM1?8 Int) (|K1,0?9| Int) (K?10 Int) (|S1,0?11| Real)
            (|i'?12| Int) (KSUM1?13 Int) (|K1,0?14| Int) (K?15 Int)
            (type_err?16 Int) (type_err?17 Int) (|nrm'?18| Real)
            (|S1,0?19| Real) (|i'?20| Int) (KSUM1?21 Int) (|K1,0?22| Int)
            (K?23 Int) (|nrm'?24| Real) (|j'?25| Int) (|i'?26| Int)
            (j?27 Int) (nrm?28 Real) (ni?29 Int) (i?30 Int) (nj?31 Int)
            (k?32 Int) (param0?33 Int) (param0@pos?34 Int)
            (param0@width?35 Int))
         (and (<= (- k?32) 0) (< (+ (- nj?31) k?32) 0) (<= (- K?23) 0)
                (<= (- |K1,0?22|) 0) (= (+ |K1,0?22| (- K?23)) 0)
                (<= (+ KSUM1?21 (- K?23)) 0)
                (= (+ (- |S1,0?19|) |i'?20| (- |K1,0?22|)) 0)
                (= (+ (- KSUM1?21) |K1,0?22|) 0) (= |S1,0?19| 0)
                (or (and (= K?23 0) (= (- |nrm'?18|) 0) (= (- |i'?20|) 0))
                      (and (<= (+ (- K?23) 1) 0) (<= (+ (- ni?29) 1) 0)
                             (<= (+ (- ni?29) |i'?20|) 0)
                             (<= (+ (- |i'?20|) 1) 0)))
                (= (+ |i'?20| (- K?23)) 0) (<= (- K?23) 0) (<= (- |i'?20|) 0)
                (<= (+ ni?29 (- |i'?20|)) 0) (<= (- K?15) 0)
                (<= (- |K1,0?14|) 0) (= (+ |K1,0?14| (- K?15)) 0)
                (<= (+ KSUM1?13 (- K?15)) 0)
                (= (+ (- |S1,0?11|) |i'?12| (- |K1,0?14|)) 0)
                (= (+ (- KSUM1?13) |K1,0?14|) 0) (= |S1,0?11| 0)
                (or (and (= K?15 0) (= (- |i'?12|) 0))
                      (and (<= (+ (- K?15) 1) 0) (<= (+ (- ni?29) 1) 0)
                             (<= (+ |i'?12| (- ni?29)) 0)
                             (<= (+ (- |i'?12|) 1) 0)))
                (= (+ |i'?12| (- K?15)) 0) (<= (- K?15) 0) (<= (- |i'?12|) 0)
                (<= (+ (- |i'?12|) ni?29) 0) (<= (- K?10) 0)
                (<= (- |K1,0?9|) 0) (= (+ |K1,0?9| (- K?10)) 0)
                (<= (+ KSUM1?8 (- K?10)) 0)
                (= (+ (- |S1,0?6|) |j'?7| (- |K1,0?9|)) 0)
                (= (+ (- KSUM1?8) |K1,0?9|) 0) (= (+ |S1,0?6| (- k?32) -1) 0)
                (or (and (= K?10 0) (= (+ (- |j'?7|) k?32 1) 0)
                           (= (+ (- |i'?5|) |i'?12|) 0))
                      (and (<= (+ (- K?10) 1) 0) (<= (+ (- nj?31) k?32 2) 0)
                             (<= (- |i'?12|) 0) (<= (- k?32) 0)
                             (<= (+ |j'?7| (- nj?31)) 0)
                             (<= (+ (- |i'?5|) ni?29) 0) (<= (- |i'?5|) 0)
                             (<= (+ (- |j'?7|) 2) 0)))
                (= (+ |j'?7| (- K?10) (- k?32) -1) 0) (<= (- K?10) 0)
                (< (- |j'?7|) 0) (<= (- |i'?5|) 0) (< (- nj?31) 0)
                (<= (+ (- |j'?7|) nj?31) 0)
                (= (+ (- type_err?16) |param0@width'?1|) 0)
                (= (+ (- type_err?17) |param0@pos'?2|) 0)
                (= (+ |param0'?3| (- |nrm'?18|)) 0)
                (= (+ |nrm'?24| (- |nrm'?18|)) 0)
                (= (+ |k'?4| (- k?32) -1) 0) (= (+ |j'?25| (- |j'?7|)) 0)
                (= (+ |i'?26| (- |i'?5|)) 0) (= delta_i (+ |i'?26| (- i?30)))
                (= delta_j (+ |j'?25| (- j?27)))
                (= delta_k (+ |k'?4| (- k?32)))
                (= delta_nrm (+ |nrm'?24| (- nrm?28)))
                (= delta_param0 (+ |param0'?3| (- param0?33)))
                (= delta_param0@pos (+ |param0@pos'?2| (- param0@pos?34)))
                (= delta_param0@width (+ |param0@width'?1|
                                           (- param0@width?35))))))
(check-sat)
